Solutions	
793.0	
781.0	
772.0	
770.0	
768.0	
762.0	
761.0	
761.0	
742.0	
708.0	
690.0	
678.0	
670.0	
660.0	
656.0	
653.0	
651.0	
649.0	
644.0	
644.0	
644.0	
645.0	
637.0	
638.0	
639.0	
640.0	
643.0	
646.0	
649.0	
652.0	
655.0	
659.0	
662.0	
666.0	
663.0	
662.0	
662.0	
662.0	
664.0	
666.0	
667.0	
664.0	
666.0	
665.0	
665.0	
671.0	
679.0	
683.0	
688.0	
690.0	
697.0	
697.0	
697.0	
703.0	
684.0	
690.0	
692.0	
696.0	
694.0	
694.0	
684.0	
675.0	
667.0	
662.0	
661.0	
661.0	
661.0	
656.0	
650.0	
650.0	
647.0	
647.0	
654.0	
656.0	
661.0	
664.0	
661.0	
661.0	
661.0	
667.0	
674.0	
678.0	
677.0	
678.0	
679.0	
681.0	
689.0	
698.0	
708.0	
705.0	
701.0	
690.0	
684.0	
679.0	
673.0	
672.0	
672.0	
672.0	
672.0	
672.0	
663.0	
655.0	
652.0	
651.0	
645.0	
645.0	
647.0	
650.0	
661.0	
660.0	
660.0	
667.0	
672.0	
674.0	
679.0	
678.0	
685.0	
686.0	
696.0	
698.0	
696.0	
695.0	
690.0	
689.0	
689.0	
689.0	
684.0	
681.0	
681.0	
686.0	
674.0	
677.0	
677.0	
665.0	
667.0	
677.0	
674.0	
672.0	
656.0	
656.0	
656.0	
656.0	
658.0	
661.0	
665.0	
668.0	
676.0	
660.0	
665.0	
666.0	
666.0	
671.0	
671.0	
666.0	
666.0	
674.0	
683.0	
678.0	
671.0	
675.0	
680.0	
680.0	
679.0	
687.0	
696.0	
689.0	
690.0	
690.0	
690.0	
693.0	
685.0	
688.0	
692.0	
686.0	
686.0	
675.0	
672.0	
672.0	
672.0	
678.0	
681.0	
691.0	
691.0	
702.0	
704.0	
703.0	
703.0	
698.0	
702.0	
703.0	
703.0	
682.0	
676.0	
674.0	
667.0	
667.0	
668.0	
669.0	
668.0	
673.0	
679.0	
683.0	
687.0	
682.0	
678.0	
677.0	
677.0	
680.0	
680.0	
687.0	
687.0	
694.0	
705.0	
694.0	
691.0	
686.0	
683.0	
697.0	
695.0	
